(set-info :smt-lib-version 2.6)
(set-logic QF_LIA)
(set-info :source |
show equivalence of the following terms:
((64 * v6 + (1 * v0 + 2 * v1)) + ((4 * v2 + 8 * v3) + (16 * v4 + 32 * v5)))

v0 + 2 * (v1 + 2 * (v2 + 2 * (v3 + 2 * (v4 + 2 * (v5 + 2 * (v6))))))

in arithmetic modulo 2exp8
STATUS: unsat

generated by: Alberto Griggio <alberto.griggio@disi.unitn.it>
|)
(set-info :category "crafted")
(set-info :status unsat)
(declare-fun v0 () Int)
(declare-fun v1 () Int)
(declare-fun v2 () Int)
(declare-fun v3 () Int)
(declare-fun v4 () Int)
(declare-fun v5 () Int)
(declare-fun v6 () Int)
(declare-fun o_0 () Int)
(declare-fun o_1 () Int)
(declare-fun s_3 () Int)
(declare-fun s_4 () Int)
(declare-fun o_2 () Int)
(declare-fun s_5 () Int)
(declare-fun o_3 () Int)
(declare-fun o_4 () Int)
(declare-fun o_5 () Int)
(declare-fun o_6 () Int)
(declare-fun o_7 () Int)
(declare-fun o_8 () Int)
(declare-fun s_9 () Int)
(declare-fun o_9 () Int)
(declare-fun s_10 () Int)
(declare-fun o_10 () Int)
(declare-fun s_11 () Int)
(declare-fun o_11 () Int)
(assert (let ((?v_0 (* v6 2))) (let ((?v_2 (< ?v_0 256)) (?v_3 (< ?v_0 512))) (let ((?v_40 (+ (ite ?v_2 ?v_0 (ite ?v_3 (- ?v_0 256) (- ?v_0 512))) v5))) (let ((?v_41 (- ?v_40 (* o_6 256))) (?v_52 (* v5 32))) (let ((?v_53 (- ?v_52 (* s_4 256))) (?v_54 (* v4 16))) (let ((?v_55 (- ?v_54 (* s_3 256)))) (let ((?v_50 (+ ?v_53 ?v_55))) (let ((?v_51 (- ?v_50 (* o_2 256))) (?v_13 (* v3 8)) (?v_14 (* v2 4))) (let ((?v_56 (+ (ite (< ?v_13 256) ?v_13 (ite (< ?v_13 512) (- ?v_13 256) (ite (< ?v_13 768) (- ?v_13 512) (ite (< ?v_13 1024) (- ?v_13 768) (ite (< ?v_13 1280) (- ?v_13 1024) (ite (< ?v_13 1536) (- ?v_13 1280) (ite (< ?v_13 1792) (- ?v_13 1536) (ite (< ?v_13 2048) (- ?v_13 1792) (- ?v_13 2048))))))))) (ite (< ?v_14 256) ?v_14 (ite (< ?v_14 512) (- ?v_14 256) (ite (< ?v_14 768) (- ?v_14 512) (ite (< ?v_14 1024) (- ?v_14 768) (- ?v_14 1024)))))))) (let ((?v_57 (- ?v_56 (* o_1 256)))) (let ((?v_44 (+ ?v_51 ?v_57))) (let ((?v_45 (- ?v_44 (* o_4 256))) (?v_48 (* v6 64))) (let ((?v_49 (- ?v_48 (* s_5 256))) (?v_15 (* v1 2))) (let ((?v_58 (+ (ite (< ?v_15 256) ?v_15 (ite (< ?v_15 512) (- ?v_15 256) (- ?v_15 512))) v0))) (let ((?v_59 (- ?v_58 (* o_0 256)))) (let ((?v_46 (+ ?v_49 ?v_59))) (let ((?v_47 (- ?v_46 (* o_3 256)))) (let ((?v_42 (+ ?v_45 ?v_47))) (let ((?v_43 (- ?v_42 (* o_5 256))) (?v_1 (* 4 v6))) (let ((?v_5 (- (+ (ite ?v_2 ?v_1 (ite ?v_3 (- ?v_1 512) (- ?v_1 1024))) (* 2 v5)) (* 512 o_6)))) (let ((?v_7 (< ?v_5 256)) (?v_9 (< ?v_5 512))) (let ((?v_38 (+ (ite ?v_7 ?v_5 (ite ?v_9 (- ?v_5 256) (- ?v_5 512))) v4))) (let ((?v_39 (- ?v_38 (* o_7 256))) (?v_4 (* 8 v6))) (let ((?v_6 (- (+ (ite ?v_2 ?v_4 (ite ?v_3 (- ?v_4 1024) (- ?v_4 2048))) (* 4 v5)) (* 1024 o_6)))) (let ((?v_11 (- (+ (ite ?v_7 ?v_6 (ite ?v_9 (- ?v_6 512) (- ?v_6 1024))) (* 2 v4)) (* 512 o_7)))) (let ((?v_20 (< ?v_11 256)) (?v_23 (< ?v_11 512))) (let ((?v_36 (+ (ite ?v_20 ?v_11 (ite ?v_23 (- ?v_11 256) (- ?v_11 512))) v3))) (let ((?v_37 (- ?v_36 (* o_8 256))) (?v_29 (* 16 v6))) (let ((?v_30 (- (+ (ite ?v_2 ?v_29 (ite ?v_3 (- ?v_29 2048) (- ?v_29 4096))) (* 8 v5)) (* 2048 o_6)))) (let ((?v_31 (- (+ (ite ?v_7 ?v_30 (ite ?v_9 (- ?v_30 1024) (- ?v_30 2048))) (* 4 v4)) (* 1024 o_7)))) (let ((?v_34 (- (+ (ite ?v_20 ?v_31 (ite ?v_23 (- ?v_31 512) (- ?v_31 1024))) (* 2 v3)) (* 512 o_8)))) (let ((?v_35 (- ?v_34 (* s_9 256)))) (let ((?v_32 (+ ?v_35 v2))) (let ((?v_33 (- ?v_32 (* o_9 256))) (?v_21 (* 32 v6))) (let ((?v_22 (- (+ (ite ?v_2 ?v_21 (ite ?v_3 (- ?v_21 4096) (- ?v_21 8192))) (* 16 v5)) (* 4096 o_6)))) (let ((?v_24 (- (+ (ite ?v_7 ?v_22 (ite ?v_9 (- ?v_22 2048) (- ?v_22 4096))) (* 8 v4)) (* 2048 o_7)))) (let ((?v_27 (- (+ (- (- (+ (ite ?v_20 ?v_24 (ite ?v_23 (- ?v_24 1024) (- ?v_24 2048))) (* 4 v3)) (* 1024 o_8)) (* 512 s_9)) (* 2 v2)) (* 512 o_9)))) (let ((?v_28 (- ?v_27 (* s_10 256)))) (let ((?v_25 (+ ?v_28 v1))) (let ((?v_26 (- ?v_25 (* o_10 256))) (?v_8 (* 64 v6))) (let ((?v_10 (- (+ (ite ?v_2 ?v_8 (ite ?v_3 (- ?v_8 8192) (- ?v_8 16384))) (* 32 v5)) (* 8192 o_6)))) (let ((?v_12 (- (+ (ite ?v_7 ?v_10 (ite ?v_9 (- ?v_10 4096) (- ?v_10 8192))) (* 16 v4)) (* 4096 o_7)))) (let ((?v_18 (- (+ (- (- (+ (- (- (+ (ite ?v_20 ?v_12 (ite ?v_23 (- ?v_12 2048) (- ?v_12 4096))) (* 8 v3)) (* 2048 o_8)) (* 1024 s_9)) (* 4 v2)) (* 1024 o_9)) (* 512 s_10)) (* 2 v1)) (* 512 o_10)))) (let ((?v_19 (- ?v_18 (* s_11 256)))) (let ((?v_16 (+ ?v_19 v0))) (let ((?v_17 (- ?v_16 (* o_11 256)))) (and (not (= ?v_17 ?v_43)) (and (= (> ?v_16 256) (= o_11 1)) (and (and (< ?v_17 256) (<= 0 ?v_17)) (and (and (<= o_11 1) (<= 0 o_11)) (and (= (> ?v_18 256) (>= s_11 1)) (and (and (< ?v_19 256) (<= 0 ?v_19)) (and (and (< s_11 2) (<= 0 s_11)) (and (= (> ?v_25 256) (= o_10 1)) (and (and (< ?v_26 256) (<= 0 ?v_26)) (and (and (<= o_10 1) (<= 0 o_10)) (and (= (> ?v_27 256) (>= s_10 1)) (and (and (< ?v_28 256) (<= 0 ?v_28)) (and (and (< s_10 2) (<= 0 s_10)) (and (= (> ?v_32 256) (= o_9 1)) (and (and (< ?v_33 256) (<= 0 ?v_33)) (and (and (<= o_9 1) (<= 0 o_9)) (and (= (> ?v_34 256) (>= s_9 1)) (and (and (< ?v_35 256) (<= 0 ?v_35)) (and (and (< s_9 2) (<= 0 s_9)) (and (= (> ?v_36 256) (= o_8 1)) (and (and (< ?v_37 256) (<= 0 ?v_37)) (and (and (<= o_8 1) (<= 0 o_8)) (and (= (> ?v_38 256) (= o_7 1)) (and (and (< ?v_39 256) (<= 0 ?v_39)) (and (and (<= o_7 1) (<= 0 o_7)) (and (= (> ?v_40 256) (= o_6 1)) (and (and (< ?v_41 256) (<= 0 ?v_41)) (and (and (<= o_6 1) (<= 0 o_6)) (and (= (> ?v_42 256) (= o_5 1)) (and (and (< ?v_43 256) (<= 0 ?v_43)) (and (and (<= o_5 1) (<= 0 o_5)) (and (= (> ?v_44 256) (= o_4 1)) (and (and (< ?v_45 256) (<= 0 ?v_45)) (and (and (<= o_4 1) (<= 0 o_4)) (and (= (> ?v_46 256) (= o_3 1)) (and (and (< ?v_47 256) (<= 0 ?v_47)) (and (and (<= o_3 1) (<= 0 o_3)) (and (= (> ?v_48 256) (>= s_5 1)) (and (and (< ?v_49 256) (<= 0 ?v_49)) (and (and (< s_5 64) (<= 0 s_5)) (and (= (> ?v_50 256) (= o_2 1)) (and (and (< ?v_51 256) (<= 0 ?v_51)) (and (and (<= o_2 1) (<= 0 o_2)) (and (= (> ?v_52 256) (>= s_4 1)) (and (and (< ?v_53 256) (<= 0 ?v_53)) (and (and (< s_4 32) (<= 0 s_4)) (and (= (> ?v_54 256) (>= s_3 1)) (and (and (< ?v_55 256) (<= 0 ?v_55)) (and (and (< s_3 16) (<= 0 s_3)) (and (= (> ?v_56 256) (= o_1 1)) (and (and (< ?v_57 256) (<= 0 ?v_57)) (and (and (<= o_1 1) (<= 0 o_1)) (and (= (> ?v_58 256) (= o_0 1)) (and (and (< ?v_59 256) (<= 0 ?v_59)) (and (and (<= o_0 1) (<= 0 o_0)) (and (and (< v6 256) (>= v6 0)) (and (and (< v5 256) (>= v5 0)) (and (and (< v4 256) (>= v4 0)) (and (and (< v3 256) (>= v3 0)) (and (and (< v2 256) (>= v2 0)) (and (and (< v1 256) (>= v1 0)) (and (< v0 256) (>= v0 0))))))))))))))))))))))))))))))))))))))))))))))))))))))))))))))))))))))))))))))))))))))))))))))))))))))))))))))
(check-sat)
(exit)
